\ Model student-teams
\ LP format - for model browsing. Use MPS format to capture full model detail.
Maximize
  z + 0 z[0] + 0 z[1] + 0 z[2] + 0 z[3] + 0 z[4] + 0 z[5] + 0 z[6] + 0 z[7]
   + 0 z2[0] + 0 z2[1] + 0 z2[2] + 0 z2[3] + 0 z2[4] + 0 z2[5] + 0 z2[6]
   + 0 z2[7] + 0 z3[0] + 0 z3[1] + 0 z3[2] + 0 z3[3] + 0 z3[4] + 0 z3[5]
   + 0 z3[6] + 0 z3[7]
Subject To
 R0: x[0,0] + x[0,1] + x[0,2] + x[0,3] + x[0,4] + x[0,5] + x[0,6] + x[0,7]
   = 1
 R1: x[1,0] + x[1,1] + x[1,2] + x[1,3] + x[1,4] + x[1,5] + x[1,6] + x[1,7]
   = 1
 R2: x[2,0] + x[2,1] + x[2,2] + x[2,3] + x[2,4] + x[2,5] + x[2,6] + x[2,7]
   = 1
 R3: x[3,0] + x[3,1] + x[3,2] + x[3,3] + x[3,4] + x[3,5] + x[3,6] + x[3,7]
   = 1
 R4: x[4,0] + x[4,1] + x[4,2] + x[4,3] + x[4,4] + x[4,5] + x[4,6] + x[4,7]
   = 1
 R5: x[5,0] + x[5,1] + x[5,2] + x[5,3] + x[5,4] + x[5,5] + x[5,6] + x[5,7]
   = 1
 R6: x[6,0] + x[6,1] + x[6,2] + x[6,3] + x[6,4] + x[6,5] + x[6,6] + x[6,7]
   = 1
 R7: x[7,0] + x[7,1] + x[7,2] + x[7,3] + x[7,4] + x[7,5] + x[7,6] + x[7,7]
   = 1
 R8: x[8,0] + x[8,1] + x[8,2] + x[8,3] + x[8,4] + x[8,5] + x[8,6] + x[8,7]
   = 1
 R9: x[9,0] + x[9,1] + x[9,2] + x[9,3] + x[9,4] + x[9,5] + x[9,6] + x[9,7]
   = 1
 R10: x[10,0] + x[10,1] + x[10,2] + x[10,3] + x[10,4] + x[10,5] + x[10,6]
   + x[10,7] = 1
 R11: x[11,0] + x[11,1] + x[11,2] + x[11,3] + x[11,4] + x[11,5] + x[11,6]
   + x[11,7] = 1
 R12: x[12,0] + x[12,1] + x[12,2] + x[12,3] + x[12,4] + x[12,5] + x[12,6]
   + x[12,7] = 1
 R13: x[13,0] + x[13,1] + x[13,2] + x[13,3] + x[13,4] + x[13,5] + x[13,6]
   + x[13,7] = 1
 R14: x[14,0] + x[14,1] + x[14,2] + x[14,3] + x[14,4] + x[14,5] + x[14,6]
   + x[14,7] = 1
 R15: x[15,0] + x[15,1] + x[15,2] + x[15,3] + x[15,4] + x[15,5] + x[15,6]
   + x[15,7] = 1
 R16: x[16,0] + x[16,1] + x[16,2] + x[16,3] + x[16,4] + x[16,5] + x[16,6]
   + x[16,7] = 1
 R17: x[0,0] + x[1,0] + x[2,0] + x[3,0] + x[4,0] + x[5,0] + x[6,0] + x[7,0]
   + x[8,0] + x[9,0] + x[10,0] + x[11,0] + x[12,0] + x[13,0] + x[14,0]
   + x[15,0] + x[16,0] - 2 y[0] >= 0
 R18: x[0,1] + x[1,1] + x[2,1] + x[3,1] + x[4,1] + x[5,1] + x[6,1] + x[7,1]
   + x[8,1] + x[9,1] + x[10,1] + x[11,1] + x[12,1] + x[13,1] + x[14,1]
   + x[15,1] + x[16,1] - 2 y[1] >= 0
 R19: x[0,2] + x[1,2] + x[2,2] + x[3,2] + x[4,2] + x[5,2] + x[6,2] + x[7,2]
   + x[8,2] + x[9,2] + x[10,2] + x[11,2] + x[12,2] + x[13,2] + x[14,2]
   + x[15,2] + x[16,2] - 2 y[2] >= 0
 R20: x[0,3] + x[1,3] + x[2,3] + x[3,3] + x[4,3] + x[5,3] + x[6,3] + x[7,3]
   + x[8,3] + x[9,3] + x[10,3] + x[11,3] + x[12,3] + x[13,3] + x[14,3]
   + x[15,3] + x[16,3] - 2 y[3] >= 0
 R21: x[0,4] + x[1,4] + x[2,4] + x[3,4] + x[4,4] + x[5,4] + x[6,4] + x[7,4]
   + x[8,4] + x[9,4] + x[10,4] + x[11,4] + x[12,4] + x[13,4] + x[14,4]
   + x[15,4] + x[16,4] - 2 y[4] >= 0
 R22: x[0,5] + x[1,5] + x[2,5] + x[3,5] + x[4,5] + x[5,5] + x[6,5] + x[7,5]
   + x[8,5] + x[9,5] + x[10,5] + x[11,5] + x[12,5] + x[13,5] + x[14,5]
   + x[15,5] + x[16,5] - 2 y[5] >= 0
 R23: x[0,6] + x[1,6] + x[2,6] + x[3,6] + x[4,6] + x[5,6] + x[6,6] + x[7,6]
   + x[8,6] + x[9,6] + x[10,6] + x[11,6] + x[12,6] + x[13,6] + x[14,6]
   + x[15,6] + x[16,6] - 2 y[6] >= 0
 R24: x[0,7] + x[1,7] + x[2,7] + x[3,7] + x[4,7] + x[5,7] + x[6,7] + x[7,7]
   + x[8,7] + x[9,7] + x[10,7] + x[11,7] + x[12,7] + x[13,7] + x[14,7]
   + x[15,7] + x[16,7] - 2 y[7] >= 0
 R25: x[0,0] + x[1,0] + x[2,0] + x[3,0] + x[4,0] + x[5,0] + x[6,0] + x[7,0]
   + x[8,0] + x[9,0] + x[10,0] + x[11,0] + x[12,0] + x[13,0] + x[14,0]
   + x[15,0] + x[16,0] - 3 y[0] <= 0
 R26: x[0,1] + x[1,1] + x[2,1] + x[3,1] + x[4,1] + x[5,1] + x[6,1] + x[7,1]
   + x[8,1] + x[9,1] + x[10,1] + x[11,1] + x[12,1] + x[13,1] + x[14,1]
   + x[15,1] + x[16,1] - 3 y[1] <= 0
 R27: x[0,2] + x[1,2] + x[2,2] + x[3,2] + x[4,2] + x[5,2] + x[6,2] + x[7,2]
   + x[8,2] + x[9,2] + x[10,2] + x[11,2] + x[12,2] + x[13,2] + x[14,2]
   + x[15,2] + x[16,2] - 3 y[2] <= 0
 R28: x[0,3] + x[1,3] + x[2,3] + x[3,3] + x[4,3] + x[5,3] + x[6,3] + x[7,3]
   + x[8,3] + x[9,3] + x[10,3] + x[11,3] + x[12,3] + x[13,3] + x[14,3]
   + x[15,3] + x[16,3] - 3 y[3] <= 0
 R29: x[0,4] + x[1,4] + x[2,4] + x[3,4] + x[4,4] + x[5,4] + x[6,4] + x[7,4]
   + x[8,4] + x[9,4] + x[10,4] + x[11,4] + x[12,4] + x[13,4] + x[14,4]
   + x[15,4] + x[16,4] - 3 y[4] <= 0
 R30: x[0,5] + x[1,5] + x[2,5] + x[3,5] + x[4,5] + x[5,5] + x[6,5] + x[7,5]
   + x[8,5] + x[9,5] + x[10,5] + x[11,5] + x[12,5] + x[13,5] + x[14,5]
   + x[15,5] + x[16,5] - 3 y[5] <= 0
 R31: x[0,6] + x[1,6] + x[2,6] + x[3,6] + x[4,6] + x[5,6] + x[6,6] + x[7,6]
   + x[8,6] + x[9,6] + x[10,6] + x[11,6] + x[12,6] + x[13,6] + x[14,6]
   + x[15,6] + x[16,6] - 3 y[6] <= 0
 R32: x[0,7] + x[1,7] + x[2,7] + x[3,7] + x[4,7] + x[5,7] + x[6,7] + x[7,7]
   + x[8,7] + x[9,7] + x[10,7] + x[11,7] + x[12,7] + x[13,7] + x[14,7]
   + x[15,7] + x[16,7] - 3 y[7] <= 0
 R33: 45 y[0] - s[0] + z <= 45
 R34: 45 y[1] - s[1] + z <= 45
 R35: 45 y[2] - s[2] + z <= 45
 R36: 45 y[3] - s[3] + z <= 45
 R37: 45 y[4] - s[4] + z <= 45
 R38: 45 y[5] - s[5] + z <= 45
 R39: 45 y[6] - s[6] + z <= 45
 R40: 45 y[7] - s[7] + z <= 45
 R41: y[0] + y[1] + y[2] + y[3] + y[4] + y[5] + y[6] + y[7] = 6
 R42: s[0] - s[1] <= 0
 R43: s[1] - s[2] <= 0
 R44: s[2] - s[3] <= 0
 R45: s[3] - s[4] <= 0
 R46: s[4] - s[5] <= 0
 R47: s[5] - s[6] <= 0
 R48: s[6] - s[7] <= 0
 qc0: s[0] + [ - 15 x[0,0] * x[1,0] - 15 x[0,0] * x[15,0]
   - 15 x[1,0] * x[5,0] - 15 x[1,0] * x[7,0] - 15 x[1,0] * x[8,0]
   - 15 x[2,0] * x[7,0] - 15 x[2,0] * x[9,0] - 15 x[3,0] * x[4,0]
   - 15 x[3,0] * x[10,0] - 15 x[4,0] * x[5,0] - 15 x[4,0] * x[11,0]
   - 15 x[5,0] * x[9,0] - 15 x[5,0] * x[12,0] - 15 x[5,0] * x[16,0]
   - 15 x[6,0] * x[8,0] - 15 x[7,0] * x[13,0] - 15 x[11,0] * x[14,0] ] = 0
 qc1: s[1] + [ - 15 x[0,1] * x[1,1] - 15 x[0,1] * x[15,1]
   - 15 x[1,1] * x[5,1] - 15 x[1,1] * x[7,1] - 15 x[1,1] * x[8,1]
   - 15 x[2,1] * x[7,1] - 15 x[2,1] * x[9,1] - 15 x[3,1] * x[4,1]
   - 15 x[3,1] * x[10,1] - 15 x[4,1] * x[5,1] - 15 x[4,1] * x[11,1]
   - 15 x[5,1] * x[9,1] - 15 x[5,1] * x[12,1] - 15 x[5,1] * x[16,1]
   - 15 x[6,1] * x[8,1] - 15 x[7,1] * x[13,1] - 15 x[11,1] * x[14,1] ] = 0
 qc2: s[2] + [ - 15 x[0,2] * x[1,2] - 15 x[0,2] * x[15,2]
   - 15 x[1,2] * x[5,2] - 15 x[1,2] * x[7,2] - 15 x[1,2] * x[8,2]
   - 15 x[2,2] * x[7,2] - 15 x[2,2] * x[9,2] - 15 x[3,2] * x[4,2]
   - 15 x[3,2] * x[10,2] - 15 x[4,2] * x[5,2] - 15 x[4,2] * x[11,2]
   - 15 x[5,2] * x[9,2] - 15 x[5,2] * x[12,2] - 15 x[5,2] * x[16,2]
   - 15 x[6,2] * x[8,2] - 15 x[7,2] * x[13,2] - 15 x[11,2] * x[14,2] ] = 0
 qc3: s[3] + [ - 15 x[0,3] * x[1,3] - 15 x[0,3] * x[15,3]
   - 15 x[1,3] * x[5,3] - 15 x[1,3] * x[7,3] - 15 x[1,3] * x[8,3]
   - 15 x[2,3] * x[7,3] - 15 x[2,3] * x[9,3] - 15 x[3,3] * x[4,3]
   - 15 x[3,3] * x[10,3] - 15 x[4,3] * x[5,3] - 15 x[4,3] * x[11,3]
   - 15 x[5,3] * x[9,3] - 15 x[5,3] * x[12,3] - 15 x[5,3] * x[16,3]
   - 15 x[6,3] * x[8,3] - 15 x[7,3] * x[13,3] - 15 x[11,3] * x[14,3] ] = 0
 qc4: s[4] + [ - 15 x[0,4] * x[1,4] - 15 x[0,4] * x[15,4]
   - 15 x[1,4] * x[5,4] - 15 x[1,4] * x[7,4] - 15 x[1,4] * x[8,4]
   - 15 x[2,4] * x[7,4] - 15 x[2,4] * x[9,4] - 15 x[3,4] * x[4,4]
   - 15 x[3,4] * x[10,4] - 15 x[4,4] * x[5,4] - 15 x[4,4] * x[11,4]
   - 15 x[5,4] * x[9,4] - 15 x[5,4] * x[12,4] - 15 x[5,4] * x[16,4]
   - 15 x[6,4] * x[8,4] - 15 x[7,4] * x[13,4] - 15 x[11,4] * x[14,4] ] = 0
 qc5: s[5] + [ - 15 x[0,5] * x[1,5] - 15 x[0,5] * x[15,5]
   - 15 x[1,5] * x[5,5] - 15 x[1,5] * x[7,5] - 15 x[1,5] * x[8,5]
   - 15 x[2,5] * x[7,5] - 15 x[2,5] * x[9,5] - 15 x[3,5] * x[4,5]
   - 15 x[3,5] * x[10,5] - 15 x[4,5] * x[5,5] - 15 x[4,5] * x[11,5]
   - 15 x[5,5] * x[9,5] - 15 x[5,5] * x[12,5] - 15 x[5,5] * x[16,5]
   - 15 x[6,5] * x[8,5] - 15 x[7,5] * x[13,5] - 15 x[11,5] * x[14,5] ] = 0
 qc6: s[6] + [ - 15 x[0,6] * x[1,6] - 15 x[0,6] * x[15,6]
   - 15 x[1,6] * x[5,6] - 15 x[1,6] * x[7,6] - 15 x[1,6] * x[8,6]
   - 15 x[2,6] * x[7,6] - 15 x[2,6] * x[9,6] - 15 x[3,6] * x[4,6]
   - 15 x[3,6] * x[10,6] - 15 x[4,6] * x[5,6] - 15 x[4,6] * x[11,6]
   - 15 x[5,6] * x[9,6] - 15 x[5,6] * x[12,6] - 15 x[5,6] * x[16,6]
   - 15 x[6,6] * x[8,6] - 15 x[7,6] * x[13,6] - 15 x[11,6] * x[14,6] ] = 0
 qc7: s[7] + [ - 15 x[0,7] * x[1,7] - 15 x[0,7] * x[15,7]
   - 15 x[1,7] * x[5,7] - 15 x[1,7] * x[7,7] - 15 x[1,7] * x[8,7]
   - 15 x[2,7] * x[7,7] - 15 x[2,7] * x[9,7] - 15 x[3,7] * x[4,7]
   - 15 x[3,7] * x[10,7] - 15 x[4,7] * x[5,7] - 15 x[4,7] * x[11,7]
   - 15 x[5,7] * x[9,7] - 15 x[5,7] * x[12,7] - 15 x[5,7] * x[16,7]
   - 15 x[6,7] * x[8,7] - 15 x[7,7] * x[13,7] - 15 x[11,7] * x[14,7] ] = 0
Bounds
Binaries
 x[0,0] x[0,1] x[0,2] x[0,3] x[0,4] x[0,5] x[0,6] x[0,7] x[1,0] x[1,1]
 x[1,2] x[1,3] x[1,4] x[1,5] x[1,6] x[1,7] x[2,0] x[2,1] x[2,2] x[2,3]
 x[2,4] x[2,5] x[2,6] x[2,7] x[3,0] x[3,1] x[3,2] x[3,3] x[3,4] x[3,5]
 x[3,6] x[3,7] x[4,0] x[4,1] x[4,2] x[4,3] x[4,4] x[4,5] x[4,6] x[4,7]
 x[5,0] x[5,1] x[5,2] x[5,3] x[5,4] x[5,5] x[5,6] x[5,7] x[6,0] x[6,1]
 x[6,2] x[6,3] x[6,4] x[6,5] x[6,6] x[6,7] x[7,0] x[7,1] x[7,2] x[7,3]
 x[7,4] x[7,5] x[7,6] x[7,7] x[8,0] x[8,1] x[8,2] x[8,3] x[8,4] x[8,5]
 x[8,6] x[8,7] x[9,0] x[9,1] x[9,2] x[9,3] x[9,4] x[9,5] x[9,6] x[9,7]
 x[10,0] x[10,1] x[10,2] x[10,3] x[10,4] x[10,5] x[10,6] x[10,7] x[11,0]
 x[11,1] x[11,2] x[11,3] x[11,4] x[11,5] x[11,6] x[11,7] x[12,0] x[12,1]
 x[12,2] x[12,3] x[12,4] x[12,5] x[12,6] x[12,7] x[13,0] x[13,1] x[13,2]
 x[13,3] x[13,4] x[13,5] x[13,6] x[13,7] x[14,0] x[14,1] x[14,2] x[14,3]
 x[14,4] x[14,5] x[14,6] x[14,7] x[15,0] x[15,1] x[15,2] x[15,3] x[15,4]
 x[15,5] x[15,6] x[15,7] x[16,0] x[16,1] x[16,2] x[16,3] x[16,4] x[16,5]
 x[16,6] x[16,7] y[0] y[1] y[2] y[3] y[4] y[5] y[6] y[7] z[0] z[1] z[2]
 z[3] z[4] z[5] z[6] z[7] z2[0] z2[1] z2[2] z2[3] z2[4] z2[5] z2[6] z2[7]
 z3[0] z3[1] z3[2] z3[3] z3[4] z3[5] z3[6] z3[7]
End
